%nprocs=10
%mem=2GB
%chk=ca.chk
#p m062x/cc-pvtz pop=nboread Nosymm

sp

+2 1
Ca       0.000000000      0.000000000      0.000000000
C        0.232892000      1.177177000      6.074175000
C        0.385926000     -0.040304000      5.415779000
H        1.344843000     -0.361549000      5.004039000
H        1.088181000      1.830545000      6.206315000
C       -1.019207000      1.586777000      6.527931000
H       -1.179910000      2.554102000      6.988097000
C       -2.095830000      0.738128000      6.319729000
N       -3.443022000      1.175776000      6.707180000
O       -3.538377000      2.148019000      7.425445000
O       -4.385133000      0.538765000      6.270405000
C       -1.972725000     -0.491864000      5.693822000
H       -2.850147000     -1.106426000      5.543875000
C       -0.720610000     -0.879128000      5.234402000
C       -0.591308000     -2.087951000      4.380373000
N       -0.512709000     -1.766819000      3.018129000
C       -0.016758000     -2.607113000      2.076194000
O        0.276758000     -2.183875000      0.934825000
H       -0.629631000     -0.787198000      2.756172000
C       -0.559186000     -3.364781000      4.751388000
H       -0.607537000     -3.647643000      5.794943000
C       -0.436494000     -4.429478000      3.699933000
H        0.224846000     -5.230014000      4.043067000
H       -1.408627000     -4.894471000      3.466576000
N        0.147409000     -3.897008000      2.455244000
C        0.602462000     -4.869172000      1.512714000
C        1.837948000     -5.482658000      1.696163000
H        2.471291000     -5.148984000      2.512811000
C        2.281204000     -6.458055000      0.807640000
H        3.261470000     -6.899649000      0.942230000
C        1.470205000     -6.812390000     -0.267488000
H        1.810942000     -7.553708000     -0.984800000
C        0.227917000     -6.213948000     -0.452618000
H       -0.411329000     -6.480114000     -1.289303000
C       -0.224915000     -5.242010000      0.442684000
O       -1.429874000     -4.643522000      0.326534000
H       -1.849547000     -4.934220000     -0.506922000

$NBO ARCHIVE file=ici $END
